14
42
31
24
49
42
31
24
49
42
31
24
49
62
12
108
2 41
39 7
10 2
32 30
2 30
12 5
20 6
7 27
11 3
40 8
7 17
11 3
40 8
20 12
32 30
2 30
12 5
20 6
7 27
11 3
40 8
7 27
11 3
40 8
4 15
3 13
5 12
2 41
39 7
10 2
32 30
2 30
12 5
20 6
7 27
11 3
40 8
7 17
11 3
40 8
20 12
32 30
2 30
12 5
20 6
7 27
11 3
40 8
7 27
11 3
40 8
4 15
3 13
5 12
2 41
39 7
10 2
32 30
2 30
12 5
20 6
7 27
11 3
40 8
7 17
11 3
40 8
20 12
32 30
2 30
12 5
20 6
7 27
11 3
40 8
7 27
11 3
40 8
4 15
3 13
5 12
2 41
39 7
10 2
32 30
2 30
12 5
20 6
7 27
11 3
40 8
7 17
11 3
40 8
20 12
32 30
2 30
12 5
20 6
7 27
11 3
40 8
7 27
11 3
40 8
4 15
3 13
5 12



